12
-1 71 12 93 67 97 28 59 57 68 76 93
58 -1 60 69 46 9 58 29 77 43 49 82
35 13 -1 41 70 96 85 70 23 70 55 18
77 7 38 -1 6 56 18 21 44 6 11 47
48 15 75 57 -1 6 49 32 6 38 71 46
2 76 52 71 61 -1 12 50 52 89 36 75
50 10 75 13 21 23 -1 57 56 74 56 43
70 51 5 61 47 82 74 -1 49 46 51 14
87 1 9 42 16 81 76 23 -1 64 28 90
25 81 91 63 83 92 52 93 34 -1 89 40
18 95 91 78 48 87 48 56 96 79 -1 34
1 66 52 74 78 5 13 2 87 59 38 -1
